Route #1: 1 7 26 30 46 16 12 28 8 41 1
Route #2: 1 11 42 57 53 14 62 25 61 17 9 47 1
Route #3: 1 34 49 63 1
Route #4: 1 43 21 52 20 24 38 1
Route #5: 1 33 55 6 5 35 10 54 1
Route #6: 1 50 40 51 15 44 13 1
Route #7: 1 58 18 2 29 27 36 22 45 37 32 1
Route #8: 1 4 31 56 60 59 3 64 48 1
Route #9: 1 39 19 23 1
cost 1684.7706129149494
